%%%%%%%%%%%%%%%%%%%%%%%%%%%%%%%%%%%%%%%%%%%%%%%%%%%%%%%%%%%%%%%%%%%%%%%%%
%FILE DATA:	Soccer Computational Problem for MiniZinc Models
%AUTHORS:	Robinson Duque, Alejandro Arbelaez, Juan Francisco Díaz
%CONTACT:  	robinson.duque@correounivalle.edu.co 
%LAST UPDATE:	May, 2018 
%ROUND ROBIN:2
%TEAMS:20
%PRESENT FIXTURE:21
%FIXTURES TO PLAY:17
%GAMES TO PLAY:170
%%%%%%%%%%%%%%%%%%%%%%%%%%%%%%%%%%%%%%%%%%%%%%%%%%%%%%%%%%%%%%%%%%%%%%%%%
%Number of teams:
n=20;

%For the purpose of our models, we offer two representations of the games to play, namely fixtures and games to play:

%Fixtures to play:
%fixtures=[|0,0,0,1,1,1,1,1,1,1,1,1,1,1,1,1,1,1,1,1
%|0,0,0,1,1,1,1,1,1,1,1,1,1,1,1,1,1,1,1,1
%|0,0,0,1,1,1,1,1,1,1,1,1,1,1,1,1,1,1,1,1
%|1,1,1,0,1,0,0,1,1,1,1,1,1,1,1,1,1,1,1,1
%|1,1,1,1,0,1,0,1,1,0,1,1,1,1,1,1,1,1,1,1
%|1,1,1,0,1,0,1,1,0,1,1,1,1,1,1,1,1,1,1,1
%|1,1,1,0,0,1,0,1,1,1,1,1,1,1,1,1,1,1,1,1
%|1,1,1,1,1,1,1,0,0,1,1,1,0,1,1,1,1,1,1,1
%|1,1,1,1,1,0,1,0,0,1,1,1,1,1,1,1,1,1,1,1
%|1,1,1,1,0,1,1,1,1,0,1,1,1,0,1,1,1,1,1,1
%|1,1,1,1,1,1,1,1,1,1,0,1,1,1,1,1,1,1,0,0
%|1,1,1,1,1,1,1,1,1,1,1,0,0,1,0,1,1,1,1,1
%|1,1,1,1,1,1,1,0,1,1,1,0,0,1,1,1,1,1,1,1
%|1,1,1,1,1,1,1,1,1,0,1,1,1,0,0,1,1,1,1,1
%|1,1,1,1,1,1,1,1,1,1,1,0,1,0,0,1,1,1,1,1
%|1,1,1,1,1,1,1,1,1,1,1,1,1,1,1,0,1,0,1,0
%|1,1,1,1,1,1,1,1,1,1,1,1,1,1,1,1,0,0,0,1
%|1,1,1,1,1,1,1,1,1,1,1,1,1,1,1,0,0,0,1,1
%|1,1,1,1,1,1,1,1,1,1,0,1,1,1,1,1,0,1,0,1
%|1,1,1,1,1,1,1,1,1,1,0,1,1,1,1,0,1,1,1,0|];

%Played Fixtures:
%PlayedFixtures=[|0,2,2,1,1,1,1,1,1,1,1,1,1,1,1,1,1,1,1,1
%|2,0,2,1,1,1,1,1,1,1,1,1,1,1,1,1,1,1,1,1
%|2,2,0,1,1,1,1,1,1,1,1,1,1,1,1,1,1,1,1,1
%|1,1,1,0,1,2,2,1,1,1,1,1,1,1,1,1,1,1,1,1
%|1,1,1,1,0,1,2,1,1,2,1,1,1,1,1,1,1,1,1,1
%|1,1,1,2,1,0,1,1,2,1,1,1,1,1,1,1,1,1,1,1
%|1,1,1,2,2,1,0,1,1,1,1,1,1,1,1,1,1,1,1,1
%|1,1,1,1,1,1,1,0,2,1,1,1,2,1,1,1,1,1,1,1
%|1,1,1,1,1,2,1,2,0,1,1,1,1,1,1,1,1,1,1,1
%|1,1,1,1,2,1,1,1,1,0,1,1,1,2,1,1,1,1,1,1
%|1,1,1,1,1,1,1,1,1,1,0,1,1,1,1,1,1,1,2,2
%|1,1,1,1,1,1,1,1,1,1,1,0,2,1,2,1,1,1,1,1
%|1,1,1,1,1,1,1,2,1,1,1,2,0,1,1,1,1,1,1,1
%|1,1,1,1,1,1,1,1,1,2,1,1,1,0,2,1,1,1,1,1
%|1,1,1,1,1,1,1,1,1,1,1,2,1,2,0,1,1,1,1,1
%|1,1,1,1,1,1,1,1,1,1,1,1,1,1,1,0,1,2,1,2
%|1,1,1,1,1,1,1,1,1,1,1,1,1,1,1,1,0,2,2,1
%|1,1,1,1,1,1,1,1,1,1,1,1,1,1,1,2,2,0,1,1
%|1,1,1,1,1,1,1,1,1,1,2,1,1,1,1,1,2,1,0,1
%|1,1,1,1,1,1,1,1,1,1,2,1,1,1,1,2,1,1,1,0|];

%Games to play:
games=[|4,1|4,2|4,3|5,1|5,2|5,3|5,4|6,1|6,2|6,3|6,5|7,1|7,2|7,3|7,6|8,1|8,2|8,3|8,4|8,5|8,6|8,7|9,1|9,2|9,3|9,4|9,5|9,7|10,1|10,2|10,3|10,4|10,6|10,7|10,8|10,9|11,1|11,2|11,3|11,4|11,5|11,6|11,7|11,8|11,9|11,10|12,1|12,2|12,3|12,4|12,5|12,6|12,7|12,8|12,9|12,10|12,11|13,1|13,2|13,3|13,4|13,5|13,6|13,7|13,9|13,10|13,11|14,1|14,2|14,3|14,4|14,5|14,6|14,7|14,8|14,9|14,11|14,12|14,13|15,1|15,2|15,3|15,4|15,5|15,6|15,7|15,8|15,9|15,10|15,11|15,13|16,1|16,2|16,3|16,4|16,5|16,6|16,7|16,8|16,9|16,10|16,11|16,12|16,13|16,14|16,15|17,1|17,2|17,3|17,4|17,5|17,6|17,7|17,8|17,9|17,10|17,11|17,12|17,13|17,14|17,15|17,16|18,1|18,2|18,3|18,4|18,5|18,6|18,7|18,8|18,9|18,10|18,11|18,12|18,13|18,14|18,15|19,1|19,2|19,3|19,4|19,5|19,6|19,7|19,8|19,9|19,10|19,12|19,13|19,14|19,15|19,16|19,18|20,1|20,2|20,3|20,4|20,5|20,6|20,7|20,8|20,9|20,10|20,12|20,13|20,14|20,15|20,17|20,18|20,19|];

%Played Games:
%PlayedGames=[|2,1|2,1|3,1|3,1|3,2|3,2|4,1|4,2|4,3|5,1|5,2|5,3|5,4|6,1|6,2|6,3|6,4|6,4|6,5|7,1|7,2|7,3|7,4|7,4|7,5|7,5|7,6|8,1|8,2|8,3|8,4|8,5|8,6|8,7|9,1|9,2|9,3|9,4|9,5|9,6|9,6|9,7|9,8|9,8|10,1|10,2|10,3|10,4|10,5|10,5|10,6|10,7|10,8|10,9|11,1|11,2|11,3|11,4|11,5|11,6|11,7|11,8|11,9|11,10|12,1|12,2|12,3|12,4|12,5|12,6|12,7|12,8|12,9|12,10|12,11|13,1|13,2|13,3|13,4|13,5|13,6|13,7|13,8|13,8|13,9|13,10|13,11|13,12|13,12|14,1|14,2|14,3|14,4|14,5|14,6|14,7|14,8|14,9|14,10|14,10|14,11|14,12|14,13|15,1|15,2|15,3|15,4|15,5|15,6|15,7|15,8|15,9|15,10|15,11|15,12|15,12|15,13|15,14|15,14|16,1|16,2|16,3|16,4|16,5|16,6|16,7|16,8|16,9|16,10|16,11|16,12|16,13|16,14|16,15|17,1|17,2|17,3|17,4|17,5|17,6|17,7|17,8|17,9|17,10|17,11|17,12|17,13|17,14|17,15|17,16|18,1|18,2|18,3|18,4|18,5|18,6|18,7|18,8|18,9|18,10|18,11|18,12|18,13|18,14|18,15|18,16|18,16|18,17|18,17|19,1|19,2|19,3|19,4|19,5|19,6|19,7|19,8|19,9|19,10|19,11|19,11|19,12|19,13|19,14|19,15|19,16|19,17|19,17|19,18|20,1|20,2|20,3|20,4|20,5|20,6|20,7|20,8|20,9|20,10|20,11|20,11|20,12|20,13|20,14|20,15|20,16|20,16|20,17|20,18|20,19|];

%Played Games - Win Results:
%% 0  0  0  0  0  0  0  0  0  1  0  0  0  0  0  1  1  0  0  0
%% 0  0  0  0  0  0  1  0  0  1  0  0  0  0  0  0  0  1  0  0
%% 0  0  0  0  0  0  0  0  0  0  0  0  0  0  0  0  0  0  0  0
%% 0  0  0  0  0  0  0  0  1  1  0  0  0  0  0  0  0  1  0  0
%% 0  1  0  1  0  0  0  0  1  0  1  0  0  0  1  1  0  0  0  0
%% 1  1  1  0  0  0  0  0  0  0  0  0  0  1  1  0  1  1  0  0
%% 1  0  0  0  0  0  0  0  0  0  0  0  0  0  0  1  1  0  0  0
%% 1  0  0  1  1  1  1  0  0  1  0  0  0  0  1  1  0  1  0  0
%% 0  0  0  0  0  0  0  0  0  0  0  0  0  0  0  0  0  0  0  0
%% 0  0  0  0  0  0  0  0  0  0  0  0  0  0  0  0  1  0  0  0
%% 0  1  0  1  0  0  0  0  1  0  0  0  1  1  0  0  1  0  0  0
%% 1  0  1  1  1  0  1  1  0  0  1  0  0  1  0  0  1  1  1  0
%% 1  0  0  0  0  1  1  0  0  1  0  0  0  0  1  0  0  1  0  0
%% 0  0  0  0  0  0  0  0  0  0  0  0  0  0  0  0  0  0  0  0
%% 0  0  0  0  0  0  0  0  0  0  0  0  0  0  0  0  0  0  0  0
%% 0  0  0  0  0  0  0  0  0  1  0  0  0  1  1  0  0  0  0  0
%% 0  0  1  0  0  0  0  0  0  0  0  0  0  0  0  0  0  0  0  0
%% 0  0  0  0  0  0  0  0  0  0  0  0  0  0  1  0  0  0  0  0
%% 0  1  1  0  1  1  0  0  0  0  1  0  1  1  0  1  0  1  0  0
%% 0  1  1  1  0  0  1  1  1  1  0  1  1  1  0  0  0  1  1  0
%Played Games - Tie Results:
%% 0  2  2  1  1  0  0  0  1  0  1  0  0  1  1  0  0  1  1  1
%% 2  0  2  1  0  0  0  1  1  0  0  1  1  1  1  1  1  0  0  0
%% 2  2  0  1  1  0  1  1  1  1  1  0  1  1  1  1  0  1  0  0
%% 1  1  1  0  0  2  2  0  0  0  0  0  1  1  1  1  1  0  1  0
%% 1  0  1  0  0  1  2  0  0  2  0  0  1  1  0  0  1  1  0  1
%% 0  0  0  2  1  0  1  0  2  1  1  1  0  0  0  1  0  0  0  1
%% 0  0  1  2  2  1  0  0  1  1  1  0  0  1  1  0  0  1  1  0
%% 0  1  1  0  0  0  0  0  2  0  1  0  2  1  0  0  1  0  1  0
%% 1  1  1  0  0  2  1  2  0  1  0  1  1  1  1  1  1  1  1  0
%% 0  0  1  0  2  1  1  0  1  0  1  1  0  2  1  0  0  1  1  0
%% 1  0  1  0  0  1  1  1  0  1  0  0  0  0  1  1  0  1  1  2
%% 0  1  0  0  0  1  0  0  1  1  0  0  2  0  2  1  0  0  0  0
%% 0  1  1  1  1  0  0  2  1  0  0  2  0  1  0  1  1  0  0  0
%% 1  1  1  1  1  0  1  1  1  2  0  0  1  0  2  0  1  1  0  0
%% 1  1  1  1  0  0  1  0  1  1  1  2  0  2  0  0  1  0  1  1
%% 0  1  1  1  0  1  0  0  1  0  1  1  1  0  0  0  1  2  0  2
%% 0  1  0  1  1  0  0  1  1  0  0  0  1  1  1  1  0  2  2  1
%% 1  0  1  0  1  0  1  0  1  1  1  0  0  1  0  2  2  0  0  0
%% 1  0  0  1  0  0  1  1  1  1  1  0  0  0  1  0  2  0  0  0
%% 1  0  0  0  1  1  0  0  0  0  2  0  0  0  1  2  1  0  0  0
%Played Games - Lose Results:
%% 0  0  0  0  0  1  1  1  0  0  0  1  1  0  0  0  0  0  0  0
%% 0  0  0  0  1  1  0  0  0  0  1  0  0  0  0  0  0  0  1  1
%% 0  0  0  0  0  1  0  0  0  0  0  1  0  0  0  0  1  0  1  1
%% 0  0  0  0  1  0  0  1  0  0  1  1  0  0  0  0  0  0  0  1
%% 0  0  0  0  0  0  0  1  0  0  0  1  0  0  0  0  0  0  1  0
%% 0  0  0  0  0  0  0  1  0  0  0  0  1  0  0  0  0  0  1  0
%% 0  1  0  0  0  0  0  1  0  0  0  1  1  0  0  0  0  0  0  1
%% 0  0  0  0  0  0  0  0  0  0  0  1  0  0  0  0  0  0  0  1
%% 0  0  0  1  1  0  0  0  0  0  1  0  0  0  0  0  0  0  0  1
%% 1  1  0  1  0  0  0  1  0  0  0  0  1  0  0  1  0  0  0  1
%% 0  0  0  0  1  0  0  0  0  0  0  1  0  0  0  0  0  0  1  0
%% 0  0  0  0  0  0  0  0  0  0  0  0  0  0  0  0  0  0  0  1
%% 0  0  0  0  0  0  0  0  0  0  1  0  0  0  0  0  0  0  1  1
%% 0  0  0  0  0  1  0  0  0  0  1  1  0  0  0  1  0  0  1  1
%% 0  0  0  0  1  1  0  1  0  0  0  0  1  0  0  1  0  1  0  0
%% 1  0  0  0  1  0  1  1  0  0  0  0  0  0  0  0  0  0  1  0
%% 1  0  0  0  0  1  1  0  0  1  1  1  0  0  0  0  0  0  0  0
%% 0  1  0  1  0  1  0  1  0  0  0  1  1  0  0  0  0  0  1  1
%% 0  0  0  0  0  0  0  0  0  0  0  1  0  0  0  0  0  0  0  1
%% 0  0  0  0  0  0  0  0  0  0  0  0  0  0  0  0  0  0  0  0

%%Initial points:
iPoints=[22, 22, 16, 22, 30, 32, 22, 37, 17, 16, 30, 42, 30, 15, 15, 22, 17, 15, 37, 45];

%%Initial positions:
%iPositions=[13, 12, 17, 11, 8, 5, 10, 4, 15, 16, 7, 2, 6, 20, 19, 9, 14, 18, 3, 1];

%%Position Constraints:
%numberPositionConstraints=2;

%%Total Fixtures:
%totalFixtures=38;

%%Fixtures to Play:
%fixturesToPlay=17;

%%Position Constraints Built With
%wantedPoints=[0, 0, 3, 3, 0, 0, 3, 0, 3, 0, 1, 3, 1, 1, 3, 1, 0, 1, 1, 1, 1, 1, 3, 0, 0, 0, 1, 0, 1, 1, 3, 1, 3, 3, 0, 1, 3, 3, 3, 0, 0, 1, 3, 1, 0, 1, 3, 0, 3, 3, 3, 1, 1, 1, 0, 1, 3, 3, 1, 3, 3, 1, 0, 3, 0, 1, 3, 1, 3, 0, 0, 1, 0, 1, 0, 3, 1, 3, 3, 1, 3, 3, 1, 1, 0, 0, 0, 1, 3, 3, 0, 0, 0, 0, 0, 3, 1, 0, 0, 0, 1, 0, 3, 0, 1, 3, 3, 1, 1, 1, 0, 3, 1, 0, 1, 3, 3, 0, 0, 3, 0, 1, 3, 1, 1, 1, 3, 0, 0, 0, 1, 3, 3, 1, 1, 0, 3, 1, 0, 0, 0, 1, 0, 1, 0, 3, 3, 3, 3, 0, 1, 1, 0, 1, 3, 0, 3, 3, 0, 3, 0, 1, 3, 3, 1, 1, 1, 3, 1, 1];

%%Probabilities:
probabilities=[|62,10,0,28,|92,6,0,2,|43,23,0,34,|29,49,0,22,|87,7,0,6,|66,22,0,12,|43,24,0,33,|90,1,0,9,|85,2,0,13,|29,54,0,17,|48,29,0,23,|82,4,0,14,|48,41,0,11,|42,54,0,4,|48,35,0,17,|24,62,0,14,|39,56,0,5,|58,2,0,40,|39,35,0,26,|69,16,0,15,|49,9,0,42,|19,77,0,4,|29,8,0,63,|54,16,0,30,|52,11,0,37,|55,24,0,21,|93,4,0,3,|22,64,0,14,|51,5,0,44,|43,41,0,16,|53,2,0,45,|31,30,0,39,|62,24,0,14,|12,11,0,77,|24,0,0,76,|37,46,0,17,|18,15,0,67,|47,0,0,53,|92,0,0,8,|39,35,0,26,|26,4,0,70,|31,43,0,26,|0,22,0,78,|44,13,0,43,|64,11,0,25,|36,5,0,59,|9,80,0,11,|58,39,0,3,|71,23,0,6,|86,12,0,2,|70,13,0,17,|68,19,0,13,|67,22,0,11,|39,41,0,20,|33,52,0,15,|1,20,0,79,|46,10,0,44,|69,9,0,22,|20,57,0,23,|51,9,0,40,|66,23,0,11,|35,2,0,63,|71,9,0,20,|86,11,0,3,|82,17,0,1,|100,0,0,0,|98,0,0,2,|34,1,0,65,|41,59,0,0,|14,57,0,29,|99,1,0,0,|26,73,0,1,|4,47,0,49,|76,20,0,4,|64,3,0,33,|95,1,0,4,|89,1,0,10,|34,4,0,62,|6,70,0,24,|23,32,0,45,|73,9,0,18,|81,5,0,14,|36,17,0,47,|7,86,0,7,|36,58,0,6,|29,51,0,20,|95,0,0,5,|23,14,0,63,|23,46,0,31,|59,0,0,41,|82,6,0,12,|11,57,0,32,|1,9,0,90,|7,7,0,86,|21,79,0,0,|3,59,0,38,|61,39,0,0,|84,3,0,13,|51,15,0,34,|74,10,0,16,|1,83,0,16,|45,18,0,37,|29,33,0,38,|69,2,0,29,|54,25,0,21,|84,11,0,5,|76,13,0,11,|94,2,0,4,|50,38,0,12,|4,51,0,45,|69,29,0,2,|62,21,0,17,|78,16,0,6,|35,47,0,18,|11,82,0,7,|26,3,0,71,|65,14,0,21,|29,13,0,58,|86,13,0,1,|44,15,0,41,|92,2,0,6,|46,41,0,13,|31,53,0,16,|64,9,0,27,|41,7,0,52,|14,48,0,38,|98,0,0,2,|62,32,0,6,|76,3,0,21,|52,32,0,16,|71,16,0,13,|97,2,0,1,|5,66,0,29,|52,28,0,20,|1,0,0,99,|28,51,0,21,|37,2,0,61,|46,17,0,37,|11,62,0,27,|96,0,0,4,|35,55,0,10,|93,7,0,0,|68,9,0,23,|28,30,0,42,|54,2,0,44,|90,7,0,3,|56,8,0,36,|62,32,0,6,|39,16,0,45,|30,69,0,1,|31,50,0,19,|5,79,0,16,|10,89,0,1,|76,6,0,18,|55,26,0,19,|8,17,0,75,|5,73,0,22,|43,40,0,17,|56,39,0,5,|8,91,0,1,|40,49,0,11,|54,35,0,11,|38,57,0,5,|26,45,0,29,|2,56,0,42,|64,22,0,14,|3,34,0,63,|30,24,0,46,|2,51,0,47,|66,0,0,34,|];


%POSITION CONSTRAINTS
%%[|teamID, operator, position|...]
%%operators index:
%%%1 for =  operator
%%%2 for >  operator
%%%3 for >= operator
%%%4 for <  operator
%%%5 for <= operator

positionConstraints=[|18,1,13|20,1,1|];

%SCORE VECTOR CONSTRAINTS
%%[|teamID, operator, wantedPoints|...]
%%operators index:
%%%1 for =  operator
%%%2 for >  operator
%%%3 for >= operator
%%%4 for <  operator
%%%5 for <= operator

%scoreVectorConstraints=[|18,1,40|20,1,73|];

%Instance Features:
%features=T,FP,TF,C,C/T,C/TF,FP/TF,FP/T,FP*C/T,FP*T/C,(C/T)*(FP/TF),Distance,Distance/C,Distance/T,Distance/(C*T)
%values=20,17,38,2,0.1,0.05263157894736842,0.4473684210526316,0.85,1.7,170.0,0.04473684210526316,5,2.5,0.25,0.125



